

******************************************************************************
This program contains Ipopt, a library for large-scale nonlinear optimization.
 Ipopt is released as open source code under the Eclipse Public License (EPL).
         For more information visit https://github.com/coin-or/Ipopt
******************************************************************************

This is Ipopt version 3.14.11, running with linear solver MUMPS 5.5.1.

Number of nonzeros in equality constraint Jacobian...:        0
Number of nonzeros in inequality constraint Jacobian.:        2
Number of nonzeros in Lagrangian Hessian.............:        3

Total number of variables............................:        2
                     variables with only lower bounds:        0
                variables with lower and upper bounds:        2
                     variables with only upper bounds:        0
Total number of equality constraints.................:        0
Total number of inequality constraints...............:        1
        inequality constraints with only lower bounds:        1
   inequality constraints with lower and upper bounds:        0
        inequality constraints with only upper bounds:        0

iter    objective    inf_pr   inf_du lg(mu)  ||d||  lg(rg) alpha_du alpha_pr  ls
   0  8.5615169e+01 0.00e+00 1.00e+00  -1.0 0.00e+00    -  0.00e+00 0.00e+00   0
   1  8.5275942e+01 0.00e+00 3.69e-01  -1.0 6.85e-01    -  6.32e-01 1.00e+00f  1
   2  8.4837283e+01 0.00e+00 7.05e-01  -1.0 7.11e-01   0.0 9.91e-01 1.00e+00f  1
   3  8.2549753e+01 0.00e+00 9.55e-01  -1.7 2.79e+00  -0.5 4.80e-01 1.00e+00f  1
   4  2.4052726e+01 2.26e+02 8.90e-01  -1.7 6.33e+01  -1.0 1.48e-01 1.00e+00f  1
   5  9.0647155e+00 0.00e+00 3.34e+00  -1.7 1.59e+01  -0.5 5.95e-01 1.00e+00h  1
   6  3.7187511e+00 0.00e+00 8.58e-01  -1.7 4.62e+00  -1.0 1.00e+00 1.00e+00h  1
   7 -4.1128377e+00 5.06e+01 1.18e+00  -1.7 2.17e+01  -1.5 1.00e+00 1.00e+00f  1
   8 -6.6454499e+00 0.00e+00 1.52e-01  -1.7 6.38e+00  -2.0 1.00e+00 1.00e+00h  1
   9 -6.6348953e+00 0.00e+00 1.16e-02  -1.7 1.30e+00  -2.4 1.00e+00 1.00e+00h  1
iter    objective    inf_pr   inf_du lg(mu)  ||d||  lg(rg) alpha_du alpha_pr  ls
  10 -6.6399738e+00 0.00e+00 3.35e-03  -1.7 2.75e+00  -2.9 1.00e+00 1.00e+00h  1
  11 -6.6721724e+00 0.00e+00 3.67e-03  -3.8 9.04e+00  -3.4 1.00e+00 1.00e+00h  1
  12 -6.8097132e+00 0.00e+00 4.53e-03  -3.8 3.35e+01  -3.9 1.00e+00 1.00e+00f  1
  13 -8.1976146e+00 1.16e-01 2.35e-02  -3.8 2.36e+02  -4.3 1.00e+00 8.22e-01f  1
  14 -8.1979024e+00 1.46e-01 2.35e-02  -3.8 9.51e+01    -  1.00e+00 3.07e-04h  1
  15 -8.1979763e+00 0.00e+00 3.72e-05  -3.8 1.51e-01    -  1.00e+00 1.00e+00f  1
  16 -8.1978814e+00 0.00e+00 1.50e-09  -3.8 3.29e-03    -  1.00e+00 1.00e+00h  1
  17 -8.1980300e+00 0.00e+00 2.24e-10  -5.7 1.51e-02    -  1.00e+00 1.00e+00h  1
  18 -8.1980318e+00 0.00e+00 3.70e-14  -8.6 1.87e-04    -  1.00e+00 1.00e+00h  1

Number of Iterations....: 18

                                   (scaled)                 (unscaled)
Objective...............:  -8.1980318006459356e+00   -8.1980318006459356e+00
Dual infeasibility......:   3.7000469608845728e-14    3.7000469608845728e-14
Constraint violation....:   0.0000000000000000e+00    0.0000000000000000e+00
Variable bound violation:   0.0000000000000000e+00    0.0000000000000000e+00
Complementarity.........:   2.5064053674489743e-09    2.5064053674489743e-09
Overall NLP error.......:   2.5064053674489743e-09    2.5064053674489743e-09


Number of objective function evaluations             = 19
Number of objective gradient evaluations             = 19
Number of equality constraint evaluations            = 0
Number of inequality constraint evaluations          = 19
Number of equality constraint Jacobian evaluations   = 0
Number of inequality constraint Jacobian evaluations = 19
Number of Lagrangian Hessian evaluations             = 18
Total seconds in IPOPT                               = 0.012

EXIT: Optimal Solution Found.
 
Ipopt 3.14.11: Optimal Solution Found
